
  32    4
  10   10   10   10

   0   0   0   0   0   1 2 
   3   0   1   1   1   1 3 
   2   1   0   6   2   1 4 
   8   0   5   2   3   1 5 
  10   4   0   4   7   1 6 
   1   6   4   3   0   1 7 
   6   5   3   4   0   1 8 
   7   2   4   0   8   1 9 
   2   0   3   3   6   1 10 
   5   0   5   3   7   1 11 
  10   2   0   5   4   1 12 
   4   6   6   0   2   1 13 
   7   6   4   5   0   1 14 
   4   0   1   2   4   2 18 15 
   2   0   6   4   4   1 16 
   3   3   5   5   0   1 17 
   2   3   1   3   0   1 19 
   9   4   4   0   2   1 19 
  10   0   6   3   2   1 20 
   1   0   5   3   6   2 27 21 
   8   2   6   2   0   1 22 
  10   0   4   3   2   1 23 
   5   0   1   6   3   1 24 
   7   0   4   5   4   1 25 
   3   5   4   0   4   1 26 
   3   5   0   8   4   1 28 
   4   6   0   6   3   1 28 
   4   6   7   7   0   2 31 29 
   1   3   0   2   8   1 30 
   9   0   2   5   2   1 32
   6   3   5   4   0   1 32
   0   0   0   0   0   0 
